\ SCIP STATISTICS
\   Problem name     : SetCover-100-100
\   Variables        : 100 (100 binary, 0 integer, 0 implicit integer, 0 continuous)
\   Constraints      : 100
Minimize
 Obj: +97 x0 +11 x1 +65 x2 +74 x3 +74 x4 +66 x5 +74 x6 +20 x7 +93 x8 +74 x9 +13 x10 +82 x11 +16 x12 +71 x13
      +20 x14 +24 x15 +31 x16 +65 x17 +60 x18 +26 x19 +92 x20 +34 x21 +60 x22 +86 x23 +6 x24 +66 x25 +45 x26
      +24 x27 +60 x28 +30 x29 +83 x30 +72 x31 +88 x32 +62 x33 +46 x34 +60 x35 +48 x36 +63 x37 +67 x38
      +91 x39 +10 x40 +58 x41 +38 x42 +35 x43 +11 x44 +13 x45 +64 x46 +39 x47 +32 x48 +27 x49 +51 x50
      +19 x51 +41 x52 +18 x53 +15 x54 +51 x55 +44 x56 +6 x57 +18 x58 +49 x59 +80 x60 +73 x61 +43 x62 +18 x63
      +54 x64 +58 x65 +68 x66 +23 x67 +40 x68 +19 x69 +87 x70 +76 x71 +3 x72 +38 x73 +45 x74 +15 x75 +2 x76
      +91 x77 +65 x78 +60 x79 +34 x80 +96 x81 +4 x82 +91 x83 +27 x84 +84 x85 +10 x86 +78 x87 +18 x88 +88 x89
      +88 x90 +17 x91 +79 x92 +33 x93 +97 x94 +91 x95 +79 x96 +43 x97 +42 x98 +93 x99
Subject to
 c0: +1 x5 +1 x9 +1 x11 +1 x17 +1 x24 +1 x26 +1 x27 +1 x29 +1 x34 +1 x41 +1 x45 +1 x51 +1 x55 +1 x57 +1 x68
  +1 x71 +1 x72 +1 x73 +1 x86 +1 x99 >= +1
 c1: +1 x5 +1 x9 +1 x13 +1 x21 +1 x36 +1 x37 +1 x38 +1 x44 +1 x48 +1 x57 +1 x58 +1 x61 +1 x66 +1 x76 +1 x84
  +1 x85 +1 x86 +1 x87 +1 x91 >= +1
 c2: +1 x0 +1 x13 +1 x26 +1 x27 +1 x30 +1 x31 +1 x34 +1 x35 +1 x37 +1 x40 +1 x41 +1 x54 +1 x57 +1 x61
  +1 x65 +1 x70 +1 x80 +1 x82 +1 x88 +1 x98 >= +1
 c3: +1 x1 +1 x6 +1 x9 +1 x10 +1 x14 +1 x15 +1 x17 +1 x23 +1 x24 +1 x33 +1 x36 +1 x42 +1 x46 +1 x50 +1 x56
  +1 x60 +1 x61 +1 x66 +1 x75 +1 x79 +1 x80 +1 x83 +1 x96 +1 x97 >= +1
 c4: +1 x3 +1 x6 +1 x23 +1 x32 +1 x33 +1 x35 +1 x37 +1 x39 +1 x44 +1 x57 +1 x58 +1 x60 +1 x63 +1 x68 +1 x73
  +1 x81 +1 x84 +1 x85 +1 x89 +1 x92 +1 x99 >= +1
 c5: +1 x3 +1 x7 +1 x12 +1 x16 +1 x25 +1 x32 +1 x39 +1 x40 +1 x48 +1 x49 +1 x54 +1 x59 +1 x60 +1 x66 +1 x71
  +1 x91 +1 x98 >= +1
 c6: +1 x3 +1 x6 +1 x7 +1 x15 +1 x20 +1 x29 +1 x30 +1 x45 +1 x49 +1 x60 +1 x70 +1 x74 +1 x81 +1 x85 +1 x86
  +1 x90 +1 x96 +1 x99 >= +1
 c7: +1 x4 +1 x18 +1 x25 +1 x26 +1 x33 +1 x38 +1 x53 +1 x59 +1 x67 +1 x70 +1 x71 +1 x73 +1 x77 +1 x86
  +1 x89 +1 x93 >= +1
 c8: +1 x1 +1 x12 +1 x21 +1 x23 +1 x25 +1 x30 +1 x32 +1 x35 +1 x38 +1 x45 +1 x51 +1 x57 +1 x80 +1 x89
  +1 x99 >= +1
 c9: +1 x1 +1 x7 +1 x8 +1 x11 +1 x13 +1 x15 +1 x20 +1 x25 +1 x28 +1 x30 +1 x40 +1 x47 +1 x54 +1 x60 +1 x61
  +1 x64 +1 x67 +1 x71 +1 x73 +1 x80 +1 x82 +1 x85 +1 x86 +1 x87 +1 x92 +1 x98 >= +1
 c10: +1 x5 +1 x9 +1 x13 +1 x18 +1 x31 +1 x35 +1 x38 +1 x41 +1 x42 +1 x46 +1 x47 +1 x53 +1 x55 +1 x67
  +1 x72 +1 x85 +1 x88 +1 x98 >= +1
 c11: +1 x1 +1 x6 +1 x11 +1 x16 +1 x28 +1 x34 +1 x41 +1 x47 +1 x48 +1 x49 +1 x50 +1 x55 +1 x58 +1 x66
  +1 x68 +1 x73 +1 x77 +1 x86 +1 x87 +1 x88 >= +1
 c12: +1 x3 +1 x11 +1 x21 +1 x27 +1 x35 +1 x40 +1 x42 +1 x50 +1 x53 +1 x64 +1 x69 +1 x74 +1 x75 +1 x84
  +1 x87 +1 x90 +1 x96 >= +1
 c13: +1 x0 +1 x13 +1 x15 +1 x20 +1 x23 +1 x24 +1 x38 +1 x39 +1 x45 +1 x48 +1 x56 +1 x62 +1 x70 +1 x75
  +1 x77 +1 x79 +1 x81 +1 x89 >= +1
 c14: +1 x3 +1 x18 +1 x19 +1 x20 +1 x27 +1 x28 +1 x30 +1 x32 +1 x37 +1 x39 +1 x44 +1 x48 +1 x50 +1 x59
  +1 x60 +1 x63 +1 x69 +1 x70 +1 x74 +1 x79 +1 x83 +1 x91 +1 x92 +1 x94 +1 x99 >= +1
 c15: +1 x1 +1 x8 +1 x10 +1 x13 +1 x29 +1 x30 +1 x32 +1 x34 +1 x36 +1 x43 +1 x45 +1 x47 +1 x53 +1 x54
  +1 x59 +1 x60 +1 x73 +1 x81 +1 x84 +1 x92 >= +1
 c16: +1 x4 +1 x7 +1 x8 +1 x12 +1 x16 +1 x25 +1 x27 +1 x47 +1 x48 +1 x51 +1 x52 +1 x53 +1 x60 +1 x61 +1 x68
  +1 x69 +1 x77 +1 x88 +1 x97 >= +1
 c17: +1 x3 +1 x6 +1 x8 +1 x11 +1 x12 +1 x16 +1 x20 +1 x22 +1 x33 +1 x38 +1 x40 +1 x42 +1 x44 +1 x57 +1 x58
  +1 x64 +1 x67 +1 x74 +1 x76 +1 x81 +1 x85 +1 x87 +1 x89 +1 x91 >= +1
 c18: +1 x2 +1 x6 +1 x25 +1 x29 +1 x42 +1 x51 +1 x54 +1 x55 +1 x59 +1 x60 +1 x62 +1 x69 +1 x72 +1 x74
  +1 x84 +1 x88 +1 x89 +1 x92 +1 x94 +1 x95 +1 x96 >= +1
 c19: +1 x0 +1 x11 +1 x13 +1 x19 +1 x23 +1 x32 +1 x33 +1 x48 +1 x55 +1 x59 +1 x62 +1 x65 +1 x66 +1 x69
  +1 x72 +1 x75 +1 x76 +1 x79 +1 x81 +1 x89 +1 x94 >= +1
 c20: +1 x2 +1 x6 +1 x15 +1 x19 +1 x22 +1 x24 +1 x33 +1 x34 +1 x39 +1 x40 +1 x44 +1 x51 +1 x57 +1 x64
  +1 x67 +1 x70 +1 x79 +1 x84 +1 x87 +1 x90 +1 x98 >= +1
 c21: +1 x3 +1 x6 +1 x8 +1 x12 +1 x16 +1 x17 +1 x20 +1 x21 +1 x27 +1 x34 +1 x36 +1 x38 +1 x40 +1 x42 +1 x44
  +1 x47 +1 x52 +1 x60 +1 x62 +1 x65 +1 x69 +1 x72 +1 x74 +1 x81 +1 x85 +1 x88 +1 x94 >= +1
 c22: +1 x5 +1 x16 +1 x22 +1 x24 +1 x29 +1 x33 +1 x37 +1 x38 +1 x39 +1 x50 +1 x73 +1 x77 +1 x79 +1 x89
  +1 x92 +1 x93 +1 x97 >= +1
 c23: +1 x5 +1 x8 +1 x9 +1 x17 +1 x24 +1 x27 +1 x30 +1 x33 +1 x35 +1 x50 +1 x58 +1 x59 +1 x64 +1 x68 +1 x72
  +1 x77 +1 x83 +1 x92 +1 x95 >= +1
 c24: +1 x1 +1 x9 +1 x15 +1 x16 +1 x18 +1 x22 +1 x25 +1 x32 +1 x37 +1 x49 +1 x50 +1 x74 +1 x75 +1 x81
  +1 x83 +1 x84 +1 x87 +1 x95 >= +1
 c25: +1 x0 +1 x7 +1 x12 +1 x18 +1 x23 +1 x24 +1 x31 +1 x33 +1 x42 +1 x43 +1 x50 +1 x52 +1 x57 +1 x58
  +1 x59 +1 x67 +1 x70 +1 x78 +1 x84 +1 x97 +1 x98 >= +1
 c26: +1 x3 +1 x9 +1 x14 +1 x22 +1 x25 +1 x27 +1 x30 +1 x31 +1 x34 +1 x39 +1 x45 +1 x47 +1 x50 +1 x51
  +1 x53 +1 x56 +1 x61 +1 x68 +1 x82 +1 x84 +1 x85 +1 x88 >= +1
 c27: +1 x3 +1 x8 +1 x14 +1 x22 +1 x26 +1 x31 +1 x32 +1 x39 +1 x44 +1 x48 +1 x60 +1 x62 +1 x63 +1 x64
  +1 x65 +1 x66 +1 x74 +1 x75 +1 x78 +1 x85 +1 x88 >= +1
 c28: +1 x3 +1 x6 +1 x8 +1 x12 +1 x13 +1 x14 +1 x20 +1 x26 +1 x28 +1 x29 +1 x34 +1 x38 +1 x42 +1 x43 +1 x45
  +1 x46 +1 x52 +1 x53 +1 x56 +1 x57 +1 x58 +1 x66 +1 x76 +1 x82 +1 x86 +1 x88 +1 x95 +1 x96 +1 x97 +1 x99
  >= +1
 c29: +1 x3 +1 x15 +1 x24 +1 x27 +1 x31 +1 x32 +1 x36 +1 x41 +1 x44 +1 x45 +1 x47 +1 x51 +1 x55 +1 x56
  +1 x60 +1 x67 +1 x73 +1 x79 >= +1
 c30: +1 x3 +1 x7 +1 x10 +1 x11 +1 x15 +1 x32 +1 x40 +1 x41 +1 x42 +1 x44 +1 x46 +1 x52 +1 x60 +1 x79
  +1 x86 +1 x88 +1 x90 +1 x91 +1 x92 +1 x93 +1 x96 >= +1
 c31: +1 x4 +1 x12 +1 x15 +1 x21 +1 x23 +1 x25 +1 x35 +1 x38 +1 x42 +1 x43 +1 x47 +1 x48 +1 x50 +1 x58
  +1 x64 +1 x66 +1 x68 +1 x72 +1 x73 +1 x79 +1 x82 +1 x84 +1 x86 +1 x89 +1 x91 +1 x95 >= +1
 c32: +1 x0 +1 x5 +1 x9 +1 x12 +1 x13 +1 x14 +1 x21 +1 x25 +1 x26 +1 x58 +1 x61 +1 x64 +1 x78 +1 x80 +1 x82
  +1 x86 +1 x90 >= +1
 c33: +1 x1 +1 x12 +1 x13 +1 x16 +1 x32 +1 x33 +1 x40 +1 x51 +1 x52 +1 x55 +1 x64 +1 x66 +1 x70 +1 x73
  +1 x93 +1 x95 +1 x97 +1 x98 >= +1
 c34: +1 x1 +1 x16 +1 x25 +1 x26 +1 x29 +1 x30 +1 x33 +1 x36 +1 x38 +1 x43 +1 x49 +1 x54 +1 x57 +1 x59
  +1 x60 +1 x62 +1 x64 +1 x65 +1 x75 +1 x79 +1 x85 +1 x86 +1 x91 >= +1
 c35: +1 x2 +1 x10 +1 x18 +1 x19 +1 x23 +1 x32 +1 x41 +1 x46 +1 x51 +1 x54 +1 x62 +1 x63 +1 x66 +1 x81
  +1 x86 +1 x92 +1 x93 +1 x99 >= +1
 c36: +1 x4 +1 x20 +1 x27 +1 x30 +1 x32 +1 x45 +1 x50 +1 x53 +1 x54 +1 x56 +1 x69 +1 x71 +1 x72 +1 x85
  +1 x95 +1 x96 >= +1
 c37: +1 x1 +1 x16 +1 x19 +1 x31 +1 x37 +1 x51 +1 x54 +1 x56 +1 x61 +1 x65 +1 x68 +1 x70 +1 x75 +1 x77
  +1 x79 +1 x81 +1 x82 +1 x98 +1 x99 >= +1
 c38: +1 x5 +1 x12 +1 x20 +1 x28 +1 x33 +1 x37 +1 x38 +1 x44 +1 x49 +1 x50 +1 x57 +1 x74 +1 x81 >= +1
 c39: +1 x4 +1 x5 +1 x9 +1 x12 +1 x15 +1 x19 +1 x29 +1 x30 +1 x36 +1 x42 +1 x45 +1 x47 +1 x52 +1 x63 +1 x66
  +1 x76 +1 x77 +1 x78 +1 x86 +1 x92 +1 x97 +1 x98 >= +1
 c40: +1 x2 +1 x10 +1 x17 +1 x21 +1 x36 +1 x47 +1 x59 +1 x66 +1 x71 +1 x83 +1 x94 +1 x95 +1 x98 >= +1
 c41: +1 x0 +1 x7 +1 x8 +1 x11 +1 x12 +1 x13 +1 x14 +1 x31 +1 x37 +1 x38 +1 x46 +1 x51 +1 x60 +1 x61 +1 x63
  +1 x64 +1 x68 +1 x80 +1 x82 +1 x88 +1 x89 +1 x92 >= +1
 c42: +1 x0 +1 x18 +1 x21 +1 x23 +1 x32 +1 x40 +1 x46 +1 x47 +1 x57 +1 x58 +1 x62 +1 x64 +1 x72 +1 x75
  +1 x76 +1 x78 +1 x79 +1 x83 +1 x85 +1 x90 +1 x94 +1 x95 +1 x97 >= +1
 c43: +1 x0 +1 x11 +1 x12 +1 x13 +1 x21 +1 x27 +1 x29 +1 x32 +1 x36 +1 x37 +1 x42 +1 x52 +1 x56 +1 x60
  +1 x62 +1 x65 +1 x67 +1 x69 +1 x71 +1 x74 +1 x76 +1 x85 +1 x91 +1 x92 >= +1
 c44: +1 x2 +1 x5 +1 x16 +1 x25 +1 x32 +1 x37 +1 x38 +1 x44 +1 x46 +1 x56 +1 x61 +1 x62 +1 x75 +1 x79
  +1 x83 +1 x84 +1 x86 +1 x97 >= +1
 c45: +1 x3 +1 x6 +1 x10 +1 x13 +1 x14 +1 x19 +1 x20 +1 x28 +1 x30 +1 x33 +1 x46 +1 x60 +1 x61 +1 x63
  +1 x69 +1 x74 +1 x84 +1 x85 >= +1
 c46: +1 x0 +1 x14 +1 x15 +1 x20 +1 x28 +1 x36 +1 x37 +1 x42 +1 x46 +1 x48 +1 x52 +1 x59 +1 x61 +1 x63
  +1 x66 +1 x69 +1 x73 +1 x78 +1 x81 +1 x95 +1 x96 >= +1
 c47: +1 x1 +1 x11 +1 x15 +1 x22 +1 x26 +1 x31 +1 x34 +1 x39 +1 x47 +1 x49 +1 x52 +1 x54 +1 x55 +1 x65
  +1 x68 +1 x72 +1 x78 +1 x80 +1 x84 +1 x98 >= +1
 c48: +1 x2 +1 x5 +1 x9 +1 x13 +1 x17 +1 x20 +1 x24 +1 x25 +1 x26 +1 x28 +1 x31 +1 x32 +1 x38 +1 x47 +1 x49
  +1 x52 +1 x56 +1 x58 +1 x61 +1 x64 +1 x66 +1 x70 +1 x73 +1 x75 +1 x80 +1 x82 >= +1
 c49: +1 x5 +1 x9 +1 x11 +1 x18 +1 x23 +1 x31 +1 x37 +1 x50 +1 x51 +1 x58 +1 x60 +1 x62 +1 x65 +1 x70
  +1 x71 +1 x76 +1 x80 +1 x85 +1 x91 +1 x93 >= +1
 c50: +1 x2 +1 x5 +1 x7 +1 x12 +1 x17 +1 x24 +1 x25 +1 x30 +1 x34 +1 x37 +1 x38 +1 x41 +1 x44 +1 x51 +1 x67
  +1 x69 +1 x74 +1 x80 +1 x81 +1 x82 +1 x94 >= +1
 c51: +1 x1 +1 x5 +1 x7 +1 x10 +1 x20 +1 x26 +1 x42 +1 x49 +1 x54 +1 x71 +1 x87 +1 x88 +1 x89 >= +1
 c52: +1 x5 +1 x6 +1 x8 +1 x10 +1 x13 +1 x21 +1 x29 +1 x47 +1 x50 +1 x53 +1 x62 +1 x63 +1 x64 +1 x67 +1 x76
  +1 x78 +1 x81 +1 x82 +1 x97 >= +1
 c53: +1 x0 +1 x7 +1 x8 +1 x13 +1 x16 +1 x24 +1 x26 +1 x29 +1 x39 +1 x46 +1 x48 +1 x58 +1 x59 +1 x61 +1 x63
  +1 x65 +1 x68 +1 x75 +1 x78 +1 x82 +1 x84 +1 x85 +1 x87 +1 x88 +1 x90 +1 x92 +1 x94 >= +1
 c54: +1 x0 +1 x21 +1 x22 +1 x24 +1 x28 +1 x35 +1 x36 +1 x46 +1 x60 +1 x62 +1 x64 +1 x66 +1 x72 +1 x73
  +1 x78 +1 x80 +1 x83 +1 x84 +1 x87 +1 x90 +1 x93 >= +1
 c55: +1 x4 +1 x6 +1 x14 +1 x17 +1 x21 +1 x28 +1 x31 +1 x33 +1 x36 +1 x40 +1 x44 +1 x48 +1 x55 +1 x60
  +1 x62 +1 x63 +1 x67 +1 x73 +1 x75 +1 x78 +1 x83 +1 x87 +1 x88 +1 x99 >= +1
 c56: +1 x5 +1 x7 +1 x8 +1 x12 +1 x22 +1 x23 +1 x24 +1 x30 +1 x37 +1 x44 +1 x45 +1 x50 +1 x58 +1 x61 +1 x70
  +1 x71 +1 x86 +1 x90 +1 x96 >= +1
 c57: +1 x0 +1 x5 +1 x10 +1 x18 +1 x27 +1 x28 +1 x50 +1 x52 +1 x55 +1 x57 +1 x62 +1 x70 +1 x71 +1 x72
  +1 x73 +1 x76 +1 x79 +1 x81 >= +1
 c58: +1 x3 +1 x8 +1 x10 +1 x21 +1 x25 +1 x34 +1 x40 +1 x46 +1 x47 +1 x50 +1 x54 +1 x56 +1 x58 +1 x60
  +1 x66 +1 x69 +1 x71 +1 x81 +1 x93 >= +1
 c59: +1 x4 +1 x7 +1 x10 +1 x12 +1 x13 +1 x15 +1 x17 +1 x18 +1 x19 +1 x23 +1 x32 +1 x33 +1 x34 +1 x38
  +1 x42 +1 x49 +1 x58 +1 x59 +1 x60 +1 x62 +1 x66 +1 x79 +1 x85 +1 x87 +1 x95 >= +1
 c60: +1 x5 +1 x7 +1 x8 +1 x12 +1 x20 +1 x22 +1 x28 +1 x36 +1 x43 +1 x47 +1 x51 +1 x55 +1 x56 +1 x61 +1 x62
  +1 x65 +1 x67 +1 x73 +1 x74 +1 x85 +1 x89 +1 x90 +1 x97 +1 x98 >= +1
 c61: +1 x4 +1 x13 +1 x14 +1 x19 +1 x29 +1 x40 +1 x47 +1 x49 +1 x54 +1 x57 +1 x70 +1 x77 +1 x83 +1 x85
  +1 x92 +1 x94 >= +1
 c62: +1 x1 +1 x8 +1 x9 +1 x14 +1 x16 +1 x19 +1 x21 +1 x22 +1 x28 +1 x37 +1 x41 +1 x52 +1 x57 +1 x59 +1 x61
  +1 x65 +1 x70 +1 x71 +1 x73 +1 x79 +1 x81 +1 x86 +1 x88 +1 x94 +1 x96 +1 x97 >= +1
 c63: +1 x1 +1 x6 +1 x18 +1 x20 +1 x24 +1 x33 +1 x47 +1 x51 +1 x54 +1 x55 +1 x65 +1 x67 +1 x71 +1 x79
  +1 x83 +1 x84 +1 x91 +1 x93 +1 x98 >= +1
 c64: +1 x3 +1 x12 +1 x39 +1 x40 +1 x64 +1 x66 +1 x68 +1 x72 +1 x78 +1 x79 +1 x85 +1 x88 +1 x93 +1 x95
  +1 x99 >= +1
 c65: +1 x2 +1 x15 +1 x24 +1 x26 +1 x29 +1 x31 +1 x44 +1 x55 +1 x56 +1 x60 +1 x72 +1 x73 +1 x88 +1 x91
  >= +1
 c66: +1 x5 +1 x6 +1 x22 +1 x23 +1 x24 +1 x27 +1 x31 +1 x42 +1 x43 +1 x68 +1 x72 +1 x74 +1 x75 +1 x78
  +1 x80 +1 x88 +1 x92 +1 x93 >= +1
 c67: +1 x1 +1 x8 +1 x13 +1 x15 +1 x25 +1 x27 +1 x36 +1 x47 +1 x52 +1 x57 +1 x58 +1 x70 +1 x82 +1 x84
  +1 x86 +1 x87 +1 x93 +1 x98 +1 x99 >= +1
 c68: +1 x2 +1 x9 +1 x17 +1 x18 +1 x20 +1 x30 +1 x32 +1 x34 +1 x45 +1 x50 +1 x52 +1 x54 +1 x55 +1 x59
  +1 x62 +1 x63 +1 x67 +1 x70 +1 x73 +1 x77 +1 x84 +1 x85 +1 x93 +1 x95 +1 x98 >= +1
 c69: +1 x5 +1 x10 +1 x13 +1 x21 +1 x24 +1 x26 +1 x28 +1 x29 +1 x31 +1 x32 +1 x34 +1 x35 +1 x38 +1 x41
  +1 x49 +1 x50 +1 x55 +1 x59 +1 x63 +1 x65 +1 x66 +1 x67 +1 x69 +1 x73 +1 x78 +1 x91 >= +1
 c70: +1 x3 +1 x10 +1 x11 +1 x18 +1 x19 +1 x23 +1 x25 +1 x37 +1 x38 +1 x42 +1 x49 +1 x51 +1 x53 +1 x55
  +1 x62 +1 x67 +1 x76 +1 x80 +1 x86 >= +1
 c71: +1 x2 +1 x7 +1 x8 +1 x9 +1 x13 +1 x32 +1 x37 +1 x53 +1 x61 +1 x64 +1 x69 +1 x70 +1 x78 +1 x80 +1 x81
  +1 x83 +1 x90 +1 x93 +1 x99 >= +1
 c72: +1 x3 +1 x11 +1 x13 +1 x16 +1 x20 +1 x23 +1 x28 +1 x34 +1 x39 +1 x44 +1 x53 +1 x54 +1 x59 +1 x60
  +1 x61 +1 x62 +1 x64 +1 x70 +1 x73 +1 x93 +1 x98 >= +1
 c73: +1 x3 +1 x6 +1 x11 +1 x14 +1 x26 +1 x28 +1 x33 +1 x37 +1 x44 +1 x45 +1 x49 +1 x53 +1 x64 +1 x65
  +1 x69 +1 x72 +1 x74 +1 x78 +1 x80 +1 x81 +1 x85 +1 x96 +1 x99 >= +1
 c74: +1 x0 +1 x7 +1 x9 +1 x10 +1 x25 +1 x26 +1 x27 +1 x31 +1 x34 +1 x40 +1 x48 +1 x50 +1 x51 +1 x70 +1 x72
  +1 x87 +1 x90 +1 x91 +1 x99 >= +1
 c75: +1 x4 +1 x9 +1 x18 +1 x19 +1 x22 +1 x30 +1 x37 +1 x41 +1 x45 +1 x46 +1 x48 +1 x57 +1 x60 +1 x63
  +1 x71 +1 x72 +1 x74 +1 x75 +1 x76 +1 x78 +1 x81 +1 x89 >= +1
 c76: +1 x2 +1 x6 +1 x8 +1 x15 +1 x18 +1 x21 +1 x22 +1 x24 +1 x39 +1 x55 +1 x58 +1 x62 +1 x69 +1 x72 +1 x77
  +1 x83 +1 x84 +1 x89 +1 x91 +1 x93 +1 x96 >= +1
 c77: +1 x0 +1 x7 +1 x10 +1 x18 +1 x21 +1 x23 +1 x36 +1 x47 +1 x48 +1 x55 +1 x64 +1 x66 +1 x68 +1 x69
  +1 x71 +1 x74 +1 x83 +1 x90 +1 x92 >= +1
 c78: +1 x2 +1 x7 +1 x9 +1 x10 +1 x20 +1 x22 +1 x26 +1 x34 +1 x42 +1 x44 +1 x45 +1 x46 +1 x50 +1 x52 +1 x53
  +1 x57 +1 x70 +1 x86 +1 x87 +1 x95 +1 x97 >= +1
 c79: +1 x0 +1 x20 +1 x21 +1 x25 +1 x28 +1 x29 +1 x32 +1 x34 +1 x37 +1 x39 +1 x45 +1 x56 +1 x60 +1 x63
  +1 x64 +1 x69 +1 x71 +1 x74 +1 x89 >= +1
 c80: +1 x3 +1 x8 +1 x20 +1 x30 +1 x32 +1 x34 +1 x38 +1 x39 +1 x47 +1 x65 +1 x69 +1 x74 +1 x75 +1 x79
  +1 x87 +1 x88 +1 x90 +1 x92 +1 x93 +1 x94 +1 x97 >= +1
 c81: +1 x3 +1 x13 +1 x19 +1 x20 +1 x34 +1 x37 +1 x54 +1 x55 +1 x65 +1 x69 +1 x76 +1 x78 +1 x99 >= +1
 c82: +1 x4 +1 x8 +1 x10 +1 x15 +1 x16 +1 x20 +1 x26 +1 x36 +1 x40 +1 x42 +1 x45 +1 x53 +1 x55 +1 x57
  +1 x70 +1 x71 +1 x74 +1 x77 +1 x78 +1 x94 +1 x96 +1 x99 >= +1
 c83: +1 x2 +1 x8 +1 x16 +1 x21 +1 x23 +1 x25 +1 x30 +1 x37 +1 x41 +1 x56 +1 x57 +1 x59 +1 x61 +1 x70
  +1 x74 +1 x77 +1 x82 +1 x94 +1 x97 >= +1
 c84: +1 x5 +1 x6 +1 x10 +1 x13 +1 x17 +1 x18 +1 x19 +1 x28 +1 x30 +1 x31 +1 x41 +1 x49 +1 x55 +1 x59
  +1 x62 +1 x69 +1 x71 +1 x89 +1 x90 +1 x94 >= +1
 c85: +1 x1 +1 x6 +1 x13 +1 x14 +1 x19 +1 x22 +1 x32 +1 x33 +1 x37 +1 x44 +1 x54 +1 x63 +1 x66 +1 x76
  +1 x78 +1 x81 +1 x90 +1 x94 +1 x97 +1 x98 >= +1
 c86: +1 x2 +1 x12 +1 x13 +1 x22 +1 x25 +1 x27 +1 x39 +1 x51 +1 x57 +1 x62 +1 x68 +1 x77 +1 x79 +1 x87
  +1 x89 +1 x92 +1 x93 +1 x96 +1 x97 >= +1
 c87: +1 x1 +1 x8 +1 x20 +1 x23 +1 x35 +1 x39 +1 x49 +1 x51 +1 x53 +1 x56 +1 x59 +1 x60 +1 x61 +1 x70
  +1 x76 +1 x79 +1 x86 +1 x87 +1 x91 +1 x94 >= +1
 c88: +1 x1 +1 x7 +1 x11 +1 x17 +1 x20 +1 x29 +1 x35 +1 x39 +1 x41 +1 x55 +1 x57 +1 x61 +1 x68 +1 x71
  +1 x72 +1 x74 +1 x78 +1 x79 +1 x83 +1 x91 +1 x96 >= +1
 c89: +1 x4 +1 x7 +1 x31 +1 x34 +1 x36 +1 x42 +1 x43 +1 x45 +1 x46 +1 x55 +1 x56 +1 x57 +1 x58 +1 x65
  +1 x66 +1 x72 +1 x77 +1 x93 >= +1
 c90: +1 x0 +1 x6 +1 x7 +1 x9 +1 x10 +1 x11 +1 x13 +1 x19 +1 x23 +1 x32 +1 x46 +1 x47 +1 x49 +1 x53 +1 x61
  +1 x62 +1 x66 +1 x71 +1 x77 +1 x88 +1 x93 +1 x98 +1 x99 >= +1
 c91: +1 x2 +1 x9 +1 x17 +1 x18 +1 x26 +1 x28 +1 x40 +1 x42 +1 x43 +1 x44 +1 x46 +1 x50 +1 x57 +1 x58
  +1 x60 +1 x67 +1 x73 +1 x92 +1 x98 >= +1
 c92: +1 x4 +1 x13 +1 x18 +1 x29 +1 x34 +1 x39 +1 x43 +1 x44 +1 x47 +1 x52 +1 x58 +1 x67 +1 x70 +1 x73
  +1 x74 +1 x87 +1 x89 +1 x94 +1 x97 >= +1
 c93: +1 x0 +1 x10 +1 x25 +1 x29 +1 x30 +1 x40 +1 x43 +1 x44 +1 x45 +1 x59 +1 x66 +1 x67 +1 x76 +1 x78
  +1 x89 +1 x93 >= +1
 c94: +1 x0 +1 x7 +1 x17 +1 x18 +1 x20 +1 x28 +1 x32 +1 x35 +1 x37 +1 x41 +1 x44 +1 x47 +1 x59 +1 x79
  +1 x83 +1 x88 +1 x95 +1 x96 >= +1
 c95: +1 x3 +1 x7 +1 x16 +1 x18 +1 x22 +1 x29 +1 x41 +1 x46 +1 x60 +1 x62 +1 x75 +1 x77 +1 x80 +1 x81
  +1 x83 +1 x84 +1 x97 >= +1
 c96: +1 x4 +1 x11 +1 x14 +1 x21 +1 x26 +1 x27 +1 x30 +1 x32 +1 x48 +1 x53 +1 x55 +1 x57 +1 x76 +1 x84
  +1 x88 +1 x89 +1 x91 +1 x93 +1 x99 >= +1
 c97: +1 x2 +1 x17 +1 x18 +1 x19 +1 x20 +1 x21 +1 x23 +1 x29 +1 x42 +1 x47 +1 x50 +1 x59 +1 x65 +1 x71
  +1 x72 +1 x78 +1 x84 +1 x90 +1 x92 +1 x93 +1 x94 +1 x96 >= +1
 c98: +1 x4 +1 x8 +1 x19 +1 x22 +1 x29 +1 x33 +1 x43 +1 x52 +1 x70 +1 x73 +1 x79 +1 x81 +1 x83 +1 x84
  +1 x85 +1 x88 +1 x89 +1 x91 +1 x99 >= +1
 c99: +1 x2 +1 x10 +1 x20 +1 x23 +1 x37 +1 x38 +1 x41 +1 x45 +1 x60 +1 x64 +1 x79 +1 x81 +1 x87 >= +1
Bounds
 0 <= x0 <= 1
 0 <= x1 <= 1
 0 <= x2 <= 1
 0 <= x3 <= 1
 0 <= x4 <= 1
 0 <= x5 <= 1
 0 <= x6 <= 1
 0 <= x7 <= 1
 0 <= x8 <= 1
 0 <= x9 <= 1
 0 <= x10 <= 1
 0 <= x11 <= 1
 0 <= x12 <= 1
 0 <= x13 <= 1
 0 <= x14 <= 1
 0 <= x15 <= 1
 0 <= x16 <= 1
 0 <= x17 <= 1
 0 <= x18 <= 1
 0 <= x19 <= 1
 0 <= x20 <= 1
 0 <= x21 <= 1
 0 <= x22 <= 1
 0 <= x23 <= 1
 0 <= x24 <= 1
 0 <= x25 <= 1
 0 <= x26 <= 1
 0 <= x27 <= 1
 0 <= x28 <= 1
 0 <= x29 <= 1
 0 <= x30 <= 1
 0 <= x31 <= 1
 0 <= x32 <= 1
 0 <= x33 <= 1
 0 <= x34 <= 1
 0 <= x35 <= 1
 0 <= x36 <= 1
 0 <= x37 <= 1
 0 <= x38 <= 1
 0 <= x39 <= 1
 0 <= x40 <= 1
 0 <= x41 <= 1
 0 <= x42 <= 1
 0 <= x43 <= 1
 0 <= x44 <= 1
 0 <= x45 <= 1
 0 <= x46 <= 1
 0 <= x47 <= 1
 0 <= x48 <= 1
 0 <= x49 <= 1
 0 <= x50 <= 1
 0 <= x51 <= 1
 0 <= x52 <= 1
 0 <= x53 <= 1
 0 <= x54 <= 1
 0 <= x55 <= 1
 0 <= x56 <= 1
 0 <= x57 <= 1
 0 <= x58 <= 1
 0 <= x59 <= 1
 0 <= x60 <= 1
 0 <= x61 <= 1
 0 <= x62 <= 1
 0 <= x63 <= 1
 0 <= x64 <= 1
 0 <= x65 <= 1
 0 <= x66 <= 1
 0 <= x67 <= 1
 0 <= x68 <= 1
 0 <= x69 <= 1
 0 <= x70 <= 1
 0 <= x71 <= 1
 0 <= x72 <= 1
 0 <= x73 <= 1
 0 <= x74 <= 1
 0 <= x75 <= 1
 0 <= x76 <= 1
 0 <= x77 <= 1
 0 <= x78 <= 1
 0 <= x79 <= 1
 0 <= x80 <= 1
 0 <= x81 <= 1
 0 <= x82 <= 1
 0 <= x83 <= 1
 0 <= x84 <= 1
 0 <= x85 <= 1
 0 <= x86 <= 1
 0 <= x87 <= 1
 0 <= x88 <= 1
 0 <= x89 <= 1
 0 <= x90 <= 1
 0 <= x91 <= 1
 0 <= x92 <= 1
 0 <= x93 <= 1
 0 <= x94 <= 1
 0 <= x95 <= 1
 0 <= x96 <= 1
 0 <= x97 <= 1
 0 <= x98 <= 1
 0 <= x99 <= 1
Binaries
 x0 x1 x2 x3 x4 x5 x6 x7 x8 x9 x10 x11 x12 x13 x14 x15 x16 x17 x18 x19 x20 x21 x22 x23 x24 x25 x26 x27
 x28 x29 x30 x31 x32 x33 x34 x35 x36 x37 x38 x39 x40 x41 x42 x43 x44 x45 x46 x47 x48 x49 x50 x51 x52 x53
 x54 x55 x56 x57 x58 x59 x60 x61 x62 x63 x64 x65 x66 x67 x68 x69 x70 x71 x72 x73 x74 x75 x76 x77 x78 x79
 x80 x81 x82 x83 x84 x85 x86 x87 x88 x89 x90 x91 x92 x93 x94 x95 x96 x97 x98 x99
End
